scenarios/sols/small/micp_milp/029.sol
objective value:                    0.449646960109277
x(0,12,0)                                           1 	(obj:0)
x(1,4,1)                                            1 	(obj:0)
x(2,0,0)                                            1 	(obj:0)
x(3,5,2)                                            1 	(obj:0)
x(4,11,1)                                           1 	(obj:0)
x(5,13,2)                                           1 	(obj:0)
x(11,1,1)                                           1 	(obj:0)
x(12,2,0)                                           1 	(obj:0)
x(13,3,2)                                           1 	(obj:0)
xc(0,9)                                             1 	(obj:0)
xc(1,3)                                             1 	(obj:0)
xc(2,9)                                             1 	(obj:0)
xc(3,11)                                            1 	(obj:0)
xc(5,0)                                             1 	(obj:0)
u(0,0)                             0.0364307505865398 	(obj:0)
u(0,1)                              0.449646960109277 	(obj:0)
u(1,0)                              0.449646960109277 	(obj:0)
u(2,1)                              0.449646960109277 	(obj:0)
u(2,2)                              0.449646960109277 	(obj:0)
u(3,1)                              0.449646960109277 	(obj:0)
u(4,1)                              0.224823480054638 	(obj:0)
u(4,2)                              0.449646960109277 	(obj:0)
u(5,2)                               0.16494353373364 	(obj:0)
u(7,0)                              0.449646960109277 	(obj:0)
u(7,2)                              0.449646960109277 	(obj:0)
u(8,1)                              0.449646960109277 	(obj:0)
u(10,0)                             0.449646960109277 	(obj:0)
u(10,1)                             0.449646960109277 	(obj:0)
u(10,2)                             0.449646960109277 	(obj:0)
u(11,0)                             0.449646960109277 	(obj:0)
u(11,1)                             0.449646960109277 	(obj:0)
u(11,2)                             0.449646960109277 	(obj:0)
u(12,0)                             0.449646960109277 	(obj:0)
u(12,1)                             0.449646960109277 	(obj:0)
u(12,2)                             0.449646960109277 	(obj:0)
u(13,0)                             0.449646960109277 	(obj:0)
u(13,1)                             0.449646960109277 	(obj:0)
u(13,2)                             0.449646960109277 	(obj:0)
u(14,0)                             0.449646960109277 	(obj:0)
u(14,1)                             0.449646960109277 	(obj:0)
u(14,2)                             0.449646960109277 	(obj:0)
u(15,0)                             0.449646960109277 	(obj:0)
u(15,1)                             0.449646960109277 	(obj:0)
u(15,2)                             0.449646960109277 	(obj:0)
u(16,0)                             0.449646960109277 	(obj:0)
u(16,1)                             0.449646960109277 	(obj:0)
u(16,2)                             0.449646960109277 	(obj:0)
u(17,0)                             0.449646960109277 	(obj:0)
u(17,1)                             0.449646960109277 	(obj:0)
u(17,2)                             0.449646960109277 	(obj:0)
u(18,0)                             0.449646960109277 	(obj:0)
u(18,1)                             0.449646960109277 	(obj:0)
u(18,2)                             0.449646960109277 	(obj:0)
u(19,0)                             0.449646960109277 	(obj:0)
u(19,1)                             0.449646960109277 	(obj:0)
u(19,2)                             0.449646960109277 	(obj:0)
f(0,9,3)                                            1 	(obj:0)
f(0,12,0)                                           1 	(obj:0)
f(0,12,1)                                           1 	(obj:0)
f(0,12,2)                                           1 	(obj:0)
f(0,12,3)                                           1 	(obj:0)
f(0,12,4)                                           1 	(obj:0)
f(1,3,1)                                            1 	(obj:0)
f(1,3,4)                                            1 	(obj:0)
f(1,4,0)                                            1 	(obj:0)
f(1,4,1)                                            1 	(obj:0)
f(1,4,2)                                            1 	(obj:0)
f(1,4,3)                                            1 	(obj:0)
f(2,0,2)                                            1 	(obj:0)
f(2,0,3)                                            1 	(obj:0)
f(2,9,0)                                            1 	(obj:0)
f(2,9,1)                                            1 	(obj:0)
f(2,9,2)                                            1 	(obj:0)
f(2,9,4)                                            1 	(obj:0)
f(3,5,0)                                            1 	(obj:0)
f(3,5,1)                                            1 	(obj:0)
f(3,5,2)                                            1 	(obj:0)
f(3,5,3)                                            1 	(obj:0)
f(3,5,4)                                            1 	(obj:0)
f(4,11,0)                                           1 	(obj:0)
f(4,11,1)                                           1 	(obj:0)
f(4,11,2)                                           1 	(obj:0)
f(4,11,3)                                           1 	(obj:0)
f(4,11,4)                                           1 	(obj:0)
f(5,0,1)                                            1 	(obj:0)
f(5,0,3)                                            1 	(obj:0)
f(5,0,4)                                            1 	(obj:0)
f(5,13,0)                                           1 	(obj:0)
f(5,13,2)                                           1 	(obj:0)
f(11,1,0)                                           1 	(obj:0)
f(11,1,1)                                           1 	(obj:0)
f(11,1,2)                                           1 	(obj:0)
f(11,1,3)                                           1 	(obj:0)
f(11,1,4)                                           1 	(obj:0)
f(12,2,0)                                           1 	(obj:0)
f(12,2,1)                                           1 	(obj:0)
f(12,2,2)                                           1 	(obj:0)
f(12,2,3)                                           1 	(obj:0)
f(12,2,4)                                           1 	(obj:0)
f(13,3,0)                                           1 	(obj:0)
f(13,3,2)                                           1 	(obj:0)
z_r(0,)                             0.449646960109277 	(obj:0)
z_r(1,)                             0.449646960109277 	(obj:0)
z_r(2,)                             0.449646960109277 	(obj:0)
z                                   0.449646960109277 	(obj:1)
